letting initialStacks = [4, 8, 9, 43, 2, 30, 19, 34, 1, 12, 14, 28, 29, 3, 35, 7, 41, 16, 24, 5, 23, 22, 37, 11, 15, 46, 42, 50, 21, 10, 32, 25, 49, 51, 40, 45, 13, 18, 39, 31, 33, 36, 27, 20, 44, 6, 17, 26, 47, 48, 38]
